NAME          ClpDefau  FREE
ROWS
 N  OBJROW
 L  ZMUNI1_PCT
 L  ZMUNI2_PCT
 L  ZMUNI3_PCT
 L  ZMUNI4_PCT
 L  ZMUNI5_PCT
 L  ZMUNI6_PCT
 L  ZMUNI7_PCT
 L  ZMUNI8_PCT
 L  ZMUNI9_PCT
COLUMNS
    QMUNI1 OBJROW 1.          
    QMUNI1 ZMUNI1_PCT 44843.6737  
    QMUNI1 ZMUNI2_PCT 2176.857    
    QMUNI1 ZMUNI3_PCT 4664.4211   
    QMUNI1 ZMUNI4_PCT 3357.5058   
    QMUNI1 ZMUNI5_PCT 778.389     
    QMUNI1 ZMUNI6_PCT 892.0669    
    QMUNI1 ZMUNI7_PCT 3629.3029   
    QMUNI1 ZMUNI8_PCT 3005.2185   
    QMUNI1 ZMUNI9_PCT 1371.7651   
    QMUNI2 OBJROW 1.          
    QMUNI2 ZMUNI1_PCT 2737.4268   
    QMUNI2 ZMUNI2_PCT 35941.1239  
    QMUNI2 ZMUNI3_PCT 2694.8929   
    QMUNI2 ZMUNI4_PCT 2714.1571   
    QMUNI2 ZMUNI5_PCT 785.0647    
    QMUNI2 ZMUNI6_PCT 725.9369    
    QMUNI2 ZMUNI7_PCT 2112.1978   
    QMUNI2 ZMUNI8_PCT 2291.8701   
    QMUNI2 ZMUNI9_PCT 1511.383    
    QMUNI3 OBJROW 1.          
    QMUNI3 ZMUNI1_PCT 6299.5911   
    QMUNI3 ZMUNI2_PCT 2802.658    
    QMUNI3 ZMUNI3_PCT 32205.5816  
    QMUNI3 ZMUNI4_PCT 5120.6589   
    QMUNI3 ZMUNI5_PCT 852.7756    
    QMUNI3 ZMUNI6_PCT 869.5602    
    QMUNI3 ZMUNI7_PCT 2938.4613   
    QMUNI3 ZMUNI8_PCT 2593.2312   
    QMUNI3 ZMUNI9_PCT 1077.2705   
    QMUNI4 OBJROW 1.          
    QMUNI4 ZMUNI1_PCT 5064.3921   
    QMUNI4 ZMUNI2_PCT 3356.1706   
    QMUNI4 ZMUNI3_PCT 5790.9012   
    QMUNI4 ZMUNI4_PCT 109719.0857 
    QMUNI4 ZMUNI5_PCT 485.9924    
    QMUNI4 ZMUNI6_PCT 526.4282    
    QMUNI4 ZMUNI7_PCT 2511.9781   
    QMUNI4 ZMUNI8_PCT 2548.2178   
    QMUNI4 ZMUNI9_PCT 1667.0227   
    QMUNI5 OBJROW 1.          
    QMUNI5 ZMUNI1_PCT 243.3777    
    QMUNI5 ZMUNI2_PCT 3.6239      
    QMUNI5 ZMUNI3_PCT 99.7543     
    QMUNI5 ZMUNI4_PCT 57.4112     
    QMUNI5 ZMUNI5_PCT 40976.5244  
    QMUNI5 ZMUNI6_PCT 3067.398    
    QMUNI5 ZMUNI7_PCT 506.2103    
    QMUNI5 ZMUNI8_PCT 202.5604    
    QMUNI5 ZMUNI9_PCT  -109.4818  
    QMUNI6 OBJROW 1.          
    QMUNI6 ZMUNI1_PCT 385.2844    
    QMUNI6 ZMUNI2_PCT  -37.1933   
    QMUNI6 ZMUNI3_PCT 158.1192    
    QMUNI6 ZMUNI4_PCT 107.3837    
    QMUNI6 ZMUNI5_PCT 3376.3886   
    QMUNI6 ZMUNI6_PCT 35499.1913  
    QMUNI6 ZMUNI7_PCT 616.455     
    QMUNI6 ZMUNI8_PCT 116.7297    
    QMUNI6 ZMUNI9_PCT  -436.7828  
    QMUNI7 OBJROW 1.          
    QMUNI7 ZMUNI1_PCT 2181.6254   
    QMUNI7 ZMUNI2_PCT 894.5465    
    QMUNI7 ZMUNI3_PCT 1345.8252   
    QMUNI7 ZMUNI4_PCT 999.4507    
    QMUNI7 ZMUNI5_PCT 557.1365    
    QMUNI7 ZMUNI6_PCT 659.5611    
    QMUNI7 ZMUNI7_PCT 47596.3592  
    QMUNI7 ZMUNI8_PCT 3715.8966   
    QMUNI7 ZMUNI9_PCT 963.211     
    QMUNI8 OBJROW 1.          
    QMUNI8 ZMUNI1_PCT 1834.4879   
    QMUNI8 ZMUNI2_PCT 1075.1724   
    QMUNI8 ZMUNI3_PCT 1285.9344   
    QMUNI8 ZMUNI4_PCT 983.429     
    QMUNI8 ZMUNI5_PCT 450.7065    
    QMUNI8 ZMUNI6_PCT 495.7199    
    QMUNI8 ZMUNI7_PCT 4047.3938   
    QMUNI8 ZMUNI8_PCT 45167.5415  
    QMUNI8 ZMUNI9_PCT 1656.723    
    QMUNI9 OBJROW 1.          
    QMUNI9 ZMUNI1_PCT 702.2858    
    QMUNI9 ZMUNI2_PCT 725.7461    
    QMUNI9 ZMUNI3_PCT 543.2129    
    QMUNI9 ZMUNI4_PCT 449.3713    
    QMUNI9 ZMUNI5_PCT 383.9493    
    QMUNI9 ZMUNI6_PCT 343.5135    
    QMUNI9 ZMUNI7_PCT 1115.036    
    QMUNI9 ZMUNI8_PCT 1773.8342   
    QMUNI9 ZMUNI9_PCT 34379.9591  
RHS
    RHS ZMUNI1_PCT 16.572902344
    RHS ZMUNI2_PCT 0.0707483321
    RHS ZMUNI3_PCT 1.5440871872
    RHS ZMUNI4_PCT 0.0812540504
    RHS ZMUNI5_PCT  -1.11667054
    RHS ZMUNI6_PCT  -0.72965744
    RHS ZMUNI7_PCT  -2.82559944
    RHS ZMUNI8_PCT 0.8968082765
    RHS ZMUNI9_PCT  -0.25363127
BOUNDS
 LO BOUND QMUNI1 -3.19403e-19
 UP BOUND QMUNI1      1.1e+10
 LO BOUND QMUNI2 -0.000466611
 UP BOUND QMUNI2      1.1e+10
 LO BOUND QMUNI3 -0.000517495
 UP BOUND QMUNI3      1.1e+10
 LO BOUND QMUNI4 -0.000236025
 UP BOUND QMUNI4      1.1e+10
 LO BOUND QMUNI5 -0.000221421
 UP BOUND QMUNI5      1.1e+10
 LO BOUND QMUNI6 -0.000400726
 UP BOUND QMUNI6      1.1e+10
 LO BOUND QMUNI7 0.0         
 UP BOUND QMUNI7      1.1e+10
 LO BOUND QMUNI8 0.0         
 UP BOUND QMUNI8      1.1e+10
 LO BOUND QMUNI9 -0.000112651
 UP BOUND QMUNI9      1.1e+10
ENDATA
